W=7;
H=3;

MAX_TIME=18;
MAX_TRACKS=9;

TARGET=(2,7);

TRAINS=[(2,1,RIGHT),(2,3,RIGHT)];
DECOYS=[];

INIT_POS=[
(1,3,STRAIGHT_RL),
(2,1,STRAIGHT_RL),
(2,2,DSWITCH_D_T_L),
(2,3,STRAIGHT_RL),
(2,5,STRAIGHT_TD),
(2,6,DSWITCH_D_T_R),
(2,7,STRAIGHT_RL),
(3,3,STRAIGHT_RL),
];
TUNNEL_PAIRS=[];

GATES=[];
ACTIVATIONS=[
(1,3,1),
(2,5,1),
(3,3,1),
];

DSWITCHES=[
(2,2,1),
(2,6,1),
];
STATIONS=[];
